p cnf 10 40
3 -10 6 0
5 -4 -1 0
-5 -10 -8 0
3 2 4 0
3 6 -7 0
1 -10 -5 0
9 -10 -8 0
9 4 2 0
2 9 -7 0
-5 1 -7 0
9 -1 -7 0
-10 -8 6 0
-5 3 -10 0
5 9 -10 0
4 -10 -8 0
-8 -5 1 0
-9 3 6 0
4 -1 -10 0
6 3 -10 0
-8 6 -5 0
2 1 -10 0
3 2 6 0
-7 -4 6 0
3 1 4 0
-8 3 4 0
6 2 1 0
-7 4 3 0
-10 9 -7 0
1 2 5 0
3 4 6 0
-1 -10 -5 0
-8 6 -5 0
-7 -5 2 0
-4 6 -7 0
6 -10 3 0
-7 4 3 0
-8 3 4 0
2 1 -5 0
2 -10 1 0
-9 2 6 0
